unsat
( c0
  c1
  c10
  c100
  c1003
  c1004
  c1007
  c1008
  c101
  c1011
  c1012
  c1015
  c1016
  c1019
  c102
  c1020
  c1023
  c1024
  c1025
  c1026
  c1027
  c1029
  c103
  c1030
  c1035
  c1038
  c104
  c1041
  c1044
  c1045
  c1046
  c1047
  c1048
  c1049
  c105
  c1050
  c1051
  c1052
  c1053
  c1054
  c1055
  c1056
  c1057
  c1058
  c1059
  c106
  c1060
  c107
  c108
  c109
  c11
  c110
  c111
  c112
  c113
  c114
  c115
  c116
  c117
  c118
  c119
  c12
  c120
  c121
  c122
  c123
  c124
  c125
  c126
  c127
  c128
  c129
  c13
  c130
  c131
  c132
  c133
  c134
  c135
  c136
  c137
  c138
  c139
  c14
  c15
  c16
  c17
  c18
  c19
  c191
  c195
  c197
  c198
  c199
  c2
  c20
  c200
  c201
  c202
  c203
  c205
  c206
  c207
  c208
  c209
  c21
  c210
  c211
  c212
  c213
  c214
  c215
  c22
  c226
  c227
  c228
  c229
  c23
  c230
  c231
  c232
  c233
  c234
  c235
  c236
  c237
  c238
  c239
  c24
  c240
  c25
  c256
  c257
  c258
  c259
  c26
  c260
  c261
  c262
  c263
  c264
  c265
  c27
  c28
  c281
  c282
  c283
  c284
  c285
  c287
  c29
  c290
  c291
  c292
  c293
  c294
  c295
  c296
  c297
  c30
  c301
  c302
  c303
  c304
  c305
  c306
  c307
  c308
  c309
  c31
  c310
  c311
  c312
  c313
  c314
  c315
  c316
  c317
  c318
  c319
  c32
  c320
  c321
  c326
  c327
  c328
  c329
  c33
  c330
  c331
  c332
  c333
  c334
  c335
  c336
  c337
  c339
  c34
  c340
  c341
  c342
  c344
  c345
  c349
  c35
  c350
  c351
  c352
  c353
  c355
  c356
  c357
  c358
  c36
  c360
  c361
  c362
  c363
  c364
  c366
  c367
  c369
  c37
  c370
  c371
  c372
  c373
  c374
  c375
  c376
  c377
  c378
  c379
  c38
  c380
  c381
  c382
  c383
  c384
  c385
  c386
  c387
  c388
  c389
  c39
  c390
  c391
  c392
  c393
  c394
  c395
  c396
  c397
  c398
  c4
  c40
  c408
  c409
  c41
  c410
  c411
  c412
  c414
  c415
  c416
  c417
  c419
  c42
  c420
  c424
  c425
  c426
  c427
  c428
  c43
  c430
  c431
  c432
  c433
  c435
  c436
  c437
  c438
  c439
  c44
  c441
  c442
  c444
  c445
  c446
  c447
  c448
  c449
  c45
  c450
  c451
  c452
  c453
  c454
  c455
  c456
  c457
  c458
  c459
  c46
  c460
  c461
  c462
  c463
  c464
  c465
  c466
  c467
  c468
  c469
  c47
  c470
  c471
  c472
  c473
  c48
  c483
  c484
  c485
  c486
  c487
  c489
  c49
  c490
  c491
  c492
  c494
  c495
  c499
  c5
  c50
  c500
  c501
  c502
  c503
  c505
  c506
  c507
  c508
  c51
  c510
  c511
  c512
  c513
  c514
  c516
  c517
  c519
  c52
  c520
  c521
  c522
  c523
  c524
  c525
  c526
  c527
  c528
  c529
  c53
  c530
  c531
  c532
  c533
  c534
  c535
  c536
  c537
  c538
  c539
  c54
  c540
  c541
  c542
  c543
  c544
  c545
  c546
  c547
  c548
  c55
  c558
  c559
  c56
  c560
  c561
  c562
  c564
  c565
  c566
  c567
  c569
  c57
  c570
  c574
  c575
  c576
  c577
  c578
  c58
  c580
  c581
  c582
  c583
  c585
  c586
  c587
  c588
  c589
  c59
  c591
  c592
  c594
  c595
  c596
  c597
  c598
  c599
  c6
  c60
  c600
  c601
  c602
  c603
  c604
  c605
  c606
  c607
  c608
  c609
  c61
  c610
  c611
  c612
  c613
  c614
  c615
  c616
  c617
  c618
  c619
  c62
  c620
  c621
  c622
  c623
  c63
  c633
  c634
  c635
  c636
  c637
  c639
  c64
  c640
  c641
  c642
  c644
  c645
  c649
  c65
  c650
  c651
  c652
  c653
  c655
  c656
  c657
  c658
  c66
  c660
  c661
  c662
  c663
  c664
  c666
  c667
  c669
  c67
  c670
  c671
  c672
  c673
  c674
  c675
  c676
  c677
  c678
  c679
  c68
  c680
  c681
  c682
  c683
  c684
  c685
  c686
  c687
  c688
  c689
  c69
  c690
  c691
  c692
  c693
  c694
  c695
  c696
  c697
  c698
  c7
  c70
  c708
  c71
  c72
  c73
  c74
  c75
  c759
  c76
  c77
  c770
  c777
  c778
  c779
  c78
  c780
  c781
  c782
  c783
  c784
  c785
  c786
  c787
  c788
  c789
  c79
  c790
  c791
  c792
  c793
  c794
  c795
  c796
  c797
  c798
  c799
  c8
  c80
  c800
  c801
  c802
  c803
  c804
  c805
  c806
  c807
  c808
  c809
  c81
  c810
  c811
  c82
  c83
  c84
  c842
  c843
  c844
  c845
  c846
  c847
  c848
  c849
  c85
  c850
  c851
  c852
  c853
  c854
  c855
  c86
  c861
  c862
  c863
  c864
  c865
  c867
  c868
  c869
  c87
  c870
  c871
  c872
  c873
  c874
  c875
  c876
  c877
  c878
  c879
  c88
  c882
  c883
  c886
  c887
  c89
  c890
  c891
  c894
  c895
  c898
  c899
  c9
  c90
  c901
  c902
  c904
  c905
  c907
  c908
  c91
  c910
  c911
  c913
  c914
  c919
  c92
  c920
  c925
  c926
  c93
  c931
  c932
  c937
  c938
  c94
  c943
  c944
  c949
  c95
  c950
  c955
  c956
  c96
  c961
  c962
  c967
  c968
  c97
  c973
  c974
  c975
  c979
  c98
  c980
  c981
  c985
  c986
  c987
  c99
  c991
  c992
  c993
  c997
  c998
  c999 )
